unsat
(forall ((A (_ BitVec 1))
         (B (_ BitVec 1))
         (C (_ BitVec 1))
         (D (_ BitVec 1))
         (E (_ BitVec 1))
         (F (_ BitVec 1))
         (G (_ BitVec 32))
         (H (_ BitVec 22))
         (I (_ BitVec 22))
         (J (_ BitVec 1))
         (K (_ BitVec 1))
         (L (_ BitVec 1))
         (M (_ BitVec 1))
         (N (_ BitVec 4))
         (O (_ BitVec 4))
         (P (_ BitVec 1))
         (Q (_ BitVec 1))
         (R (_ BitVec 1))
         (S (_ BitVec 1))
         (T (_ BitVec 1))
         (U (_ BitVec 1))
         (V (_ BitVec 2))
         (W (_ BitVec 2))
         (X (_ BitVec 1))
         (Y (_ BitVec 1))
         (Z (_ BitVec 1))
         (A1 (_ BitVec 1))
         (B1 (_ BitVec 32))
         (C1 (_ BitVec 1))
         (D1 (_ BitVec 1))
         (E1 (_ BitVec 1))
         (F1 (_ BitVec 5))
         (G1 (_ BitVec 32))
         (H1 (_ BitVec 1))
         (I1 (_ BitVec 1))
         (J1 (_ BitVec 1))
         (K1 (_ BitVec 36))
         (L1 (_ BitVec 1))
         (M1 (_ BitVec 3))
         (N1 (_ BitVec 1))
         (O1 (_ BitVec 1))
         (P1 (_ BitVec 2))
         (Q1 (_ BitVec 1))
         (R1 (_ BitVec 1))
         (S1 (_ BitVec 1))
         (T1 (_ BitVec 1))
         (U1 (_ BitVec 1))
         (V1 (_ BitVec 1))
         (W1 (_ BitVec 1))
         (X1 (_ BitVec 32))
         (Y1 (_ BitVec 1))
         (Z1 (_ BitVec 4))
         (A2 (_ BitVec 1))
         (B2 (_ BitVec 22))
         (C2 (_ BitVec 1)))
  (! (let ((a!1 (and (or ((_ bit2bool 0) Y)
                         (not (= N1 #b1))
                         (not ((_ bit2bool 0) A1)))
                     (= S1 #b0)
                     (or (not ((_ bit2bool 0) B)) (not (= N1 #b1)))
                     (or (= M1 #b000) (not (= Q1 #b1)))
                     (or ((_ bit2bool 5) K1) (= K #b1) (= E1 #b1))
                     (or (not ((_ bit2bool 0) B)) (= E1 #b1))
                     (or (not (= E1 #b0))
                         (not (= N1 #b1))
                         (not ((_ bit2bool 0) A1)))
                     (or (not (= I1 #b0)) (= N1 #b0) ((_ bit2bool 0) K)))))
       (= (INV!slice!1 A
                       B
                       C
                       D
                       E
                       F
                       G
                       H
                       I
                       J
                       K
                       L
                       M
                       N
                       O
                       P
                       Q
                       R
                       S
                       T
                       U
                       V
                       W
                       X
                       Y
                       Z
                       A1
                       B1
                       C1
                       D1
                       E1
                       F1
                       G1
                       H1
                       I1
                       J1
                       K1
                       L1
                       M1
                       N1
                       O1
                       P1
                       Q1
                       R1
                       S1
                       T1
                       U1
                       V1
                       W1
                       X1
                       Y1
                       Z1
                       A2
                       B2
                       C2)
          a!1))
     :weight 0))
